************************************************************************
file with basedata            : j9044_.bas
initial value random generator: 92539077
************************************************************************
projects                      :  1
jobs (incl. supersource/sink ):  92
horizon                       :  523
RESOURCES
  - renewable                 :  4   R
  - nonrenewable              :  0   N
  - doubly constrained        :  0   D
************************************************************************
PROJECT INFORMATION:
pronr.  #jobs rel.date duedate tardcost  MPM-Time
    1     90      0       92        8       92
************************************************************************
PRECEDENCE RELATIONS:
jobnr.    #modes  #successors   successors
   1        1          3           2   3   4
   2        1          1          11
   3        1          2           8  28
   4        1          3           5  13  18
   5        1          3           6  15  23
   6        1          3           7  41  59
   7        1          3           8  19  27
   8        1          3           9  30  57
   9        1          3          10  14  25
  10        1          3          12  48  56
  11        1          3          16  24  27
  12        1          3          39  78  79
  13        1          3          20  50  56
  14        1          2          17  26
  15        1          3          27  31  32
  16        1          3          21  75  80
  17        1          2          33  34
  18        1          3          29  50  51
  19        1          3          20  29  38
  20        1          3          22  26  34
  21        1          2          44  90
  22        1          3          36  57  72
  23        1          2          32  36
  24        1          3          44  48  88
  25        1          3          45  46  79
  26        1          3          40  54  84
  27        1          3          30  34  37
  28        1          1          52
  29        1          3          45  66  71
  30        1          3          33  38  81
  31        1          3          35  43  53
  32        1          3          39  42  43
  33        1          3          40  45  54
  34        1          3          48  49  60
  35        1          1          51
  36        1          3          49  53  62
  37        1          2          56  62
  38        1          2          44  69
  39        1          3          53  66  70
  40        1          2          43  58
  41        1          3          47  58  75
  42        1          2          55  59
  43        1          1          61
  44        1          1          72
  45        1          2          68  69
  46        1          2          66  74
  47        1          2          63  89
  48        1          1          75
  49        1          3          55  58  70
  50        1          3          55  64  76
  51        1          3          57  65  71
  52        1          3          54  59  64
  53        1          2          61  83
  54        1          2          68  69
  55        1          3          65  73  82
  56        1          1          63
  57        1          3          61  62  64
  58        1          2          77  79
  59        1          3          65  73  90
  60        1          2          71  83
  61        1          2          63  76
  62        1          2          67  70
  63        1          1          67
  64        1          3          67  74  81
  65        1          1          89
  66        1          1          72
  67        1          1          86
  68        1          1          78
  69        1          1          76
  70        1          2          73  84
  71        1          1          74
  72        1          1          87
  73        1          1          81
  74        1          3          77  78  84
  75        1          1          86
  76        1          2          77  82
  77        1          2          80  91
  78        1          2          80  82
  79        1          1          87
  80        1          2          85  88
  81        1          1          83
  82        1          2          85  87
  83        1          1          88
  84        1          2          85  91
  85        1          1          86
  86        1          1          90
  87        1          1          91
  88        1          1          89
  89        1          1          92
  90        1          1          92
  91        1          1          92
  92        1          0        
************************************************************************
REQUESTS/DURATIONS:
jobnr. mode duration  R 1  R 2  R 3  R 4
------------------------------------------------------------------------
  1      1     0       0    0    0    0
  2      1     4       1    0   10    8
  3      1     9       2    8    0    0
  4      1     7       3    0    0    6
  5      1     2       5    9    0    6
  6      1    10       3   10    0    4
  7      1     1       1   10    4    0
  8      1    10       0   10    3    5
  9      1    10       6    6    1    9
 10      1     5       4   10    0    2
 11      1     8       9    4    0    7
 12      1     3       3    1    0    5
 13      1     5       4    3    8    5
 14      1     1       8    6    1    2
 15      1     3       8    7    0    7
 16      1     4       7    2    1    2
 17      1     3       7    5    5    6
 18      1     4       0    9    7    1
 19      1     6       3    1    6    0
 20      1     7       8    5    4    0
 21      1     6       0    1    3    0
 22      1     1       0    7    7    8
 23      1     7       6    0    5    7
 24      1     6       5    9    3    5
 25      1     3       1    0    6    3
 26      1     7       7    7   10    7
 27      1     3       0    8    9    6
 28      1    10       0    6    0    9
 29      1     1       4    9    2   10
 30      1    10       0    6    0    3
 31      1     5       9    1    6    2
 32      1     4       9   10    8    9
 33      1     4       4    3    8    5
 34      1     9       0    8    0    0
 35      1     7      10    0    2    8
 36      1    10      10    9    0    6
 37      1     7       8    8    4    5
 38      1     9       9    0    6    2
 39      1     2       8    3    2    5
 40      1     2       6    0   10    1
 41      1     9       5    5    6    6
 42      1     8       0    2    0    9
 43      1     5       8    0    6    5
 44      1     6       9    3    9    2
 45      1     7       4    0    5    9
 46      1     8       8    6    7    4
 47      1     9       0    0    1    0
 48      1     4       0    6    7    3
 49      1     4      10    9    2    0
 50      1     2       0    0    9    0
 51      1     6       0    4    8   10
 52      1    10       7   10    9    9
 53      1     2       1    0    2    5
 54      1     3       4    1   10    1
 55      1     4       0    8    7    0
 56      1     6       3    8    7    0
 57      1     9       0    4    0    9
 58      1     5       3    3   10    8
 59      1     8       0    0    3   10
 60      1     2       0   10    0   10
 61      1    10       0    2    0    3
 62      1     5       0    0    3    1
 63      1     7       0   10    1    0
 64      1    10       4    1   10    1
 65      1     8       0    0    3    4
 66      1     9       1    0    2    6
 67      1    10       1    4   10    0
 68      1     1       0    1    6    0
 69      1    10       3    1    7    1
 70      1     9       5    0    0    3
 71      1     6       5    0    8    3
 72      1     6       3    0    6    0
 73      1     5      10    8    8    1
 74      1     3       8    9    4    0
 75      1     9       1    4    9    7
 76      1    10       2    0    4    0
 77      1     2       7    5    4    8
 78      1     9       7    9    0    5
 79      1     4       1    7    3    0
 80      1     4       0    7   10    9
 81      1     4       0   10    4    6
 82      1     3      10   10   10    0
 83      1     6       1    6    3    2
 84      1     9       0    5    4    1
 85      1     3       0    0    7    5
 86      1     6       2    9    0    4
 87      1     3       7    0    1    0
 88      1     9       0    2    2    7
 89      1     2       6    3    9   10
 90      1     1       5    3    6   10
 91      1     8       0    4    7    7
 92      1     0       0    0    0    0
************************************************************************
RESOURCEAVAILABILITIES:
  R 1  R 2  R 3  R 4
   49   53   60   54
************************************************************************
